DIMENSION: 9
EDGE_WEIGHT_TYPE: EXPLICIT
EDGE_WEIGHT_FORMAT: FULL_MATRIX
EDGE_WEIGHT_SECTION:
32767 32767 40 32767 32767 54 6 5 63 
32767 32767 32767 66 32767 32767 32767 32767 39 
40 32767 32767 1 32767 21 27 32767 32767 
32767 66 1 32767 32767 48 60 67 12 
32767 32767 32767 32767 32767 32767 32767 34 7 
54 32767 21 48 32767 32767 55 70 28 
6 32767 27 60 32767 55 32767 7 85 
5 32767 32767 67 34 70 7 32767 32767 
63 39 32767 12 7 28 85 32767 32767 
EOF